c Random generated cnf formula, satisfiable: true
p cnf 10 50
-4 -6 -8 0
-3 -2 -4 0
1 -10 -6 0
7 3 5 0
6 4 9 0
-10 -8 -6 0
-3 7 -2 0
-2 6 7 0
-5 -7 -10 0
8 6 -1 0
-6 -7 -2 0
-3 -4 -10 0
-7 -4 -3 0
9 -2 -4 0
-8 10 -9 0
4 1 -7 0
-3 -8 -9 0
2 6 -10 0
6 9 -5 0
6 -7 10 0
5 -7 -2 0
-4 -10 -5 0
7 -5 9 0
2 4 1 0
-7 -6 2 0
-7 -10 9 0
-5 -8 4 0
-9 -8 6 0
-2 1 -8 0
-7 -9 6 0
-3 1 -6 0
-5 -1 -8 0
-9 1 2 0
-4 3 -2 0
5 1 3 0
-8 6 9 0
-7 -8 -1 0
1 2 3 0
5 4 -9 0
6 -5 -4 0
2 6 5 0
-9 1 -4 0
-10 3 -5 0
-4 -2 7 0
-10 -2 -5 0
8 2 3 0
-2 6 -9 0
-7 -8 6 0
4 10 8 0
-1 -7 -6 0
